c n orig vars 66
p cnf 213 612
67 -1 0
67 -2 0
-67 1 2 0
68 -3 0
68 -4 0
-68 3 4 0
69 -5 0
69 -6 0
-69 5 6 0
70 -7 0
70 -8 0
-70 7 8 0
71 -9 0
71 -10 0
-71 9 10 0
72 -11 0
72 -12 0
-72 11 12 0
73 -13 0
73 -14 0
-73 13 14 0
74 -15 0
74 -16 0
-74 15 16 0
75 -17 0
75 -18 0
-75 17 18 0
76 -19 0
76 -20 0
-76 19 20 0
77 -21 0
77 -22 0
-77 21 22 0
78 -23 0
78 -24 0
-78 23 24 0
-79 67 0
-79 68 0
-79 69 0
-79 70 0
-79 71 0
-79 72 0
-79 73 0
-79 74 0
-79 75 0
-79 76 0
-79 77 0
-79 78 0
79 -67 -68 -69 -70 -71 -72 -73 -74 -75 -76 -77 -78 0
-79 0
80 -25 0
80 -32 0
80 -39 0
80 -46 0
80 -53 0
80 -60 0
-80 25 32 39 46 53 60 0
81 -26 0
81 -33 0
81 -40 0
81 -47 0
81 -54 0
81 -61 0
-81 26 33 40 47 54 61 0
82 -27 0
82 -34 0
82 -41 0
82 -48 0
82 -55 0
82 -62 0
-82 27 34 41 48 55 62 0
83 -28 0
83 -35 0
83 -42 0
83 -49 0
83 -56 0
83 -63 0
-83 28 35 42 49 56 63 0
84 -29 0
84 -36 0
84 -43 0
84 -50 0
84 -57 0
84 -64 0
-84 29 36 43 50 57 64 0
85 -30 0
85 -37 0
85 -44 0
85 -51 0
85 -58 0
85 -65 0
-85 30 37 44 51 58 65 0
86 -31 0
86 -38 0
86 -45 0
86 -52 0
86 -59 0
86 -66 0
-86 31 38 45 52 59 66 0
87 25 0
87 26 0
-87 -25 -26 0
88 25 0
88 27 0
-88 -25 -27 0
89 25 0
89 28 0
-89 -25 -28 0
90 25 0
90 29 0
-90 -25 -29 0
91 25 0
91 30 0
-91 -25 -30 0
92 25 0
92 31 0
-92 -25 -31 0
93 26 0
93 27 0
-93 -26 -27 0
94 26 0
94 28 0
-94 -26 -28 0
95 26 0
95 29 0
-95 -26 -29 0
96 26 0
96 30 0
-96 -26 -30 0
97 26 0
97 31 0
-97 -26 -31 0
98 27 0
98 28 0
-98 -27 -28 0
99 27 0
99 29 0
-99 -27 -29 0
100 27 0
100 30 0
-100 -27 -30 0
101 27 0
101 31 0
-101 -27 -31 0
102 28 0
102 29 0
-102 -28 -29 0
103 28 0
103 30 0
-103 -28 -30 0
104 28 0
104 31 0
-104 -28 -31 0
105 29 0
105 30 0
-105 -29 -30 0
106 29 0
106 31 0
-106 -29 -31 0
107 30 0
107 31 0
-107 -30 -31 0
108 32 0
108 33 0
-108 -32 -33 0
109 32 0
109 34 0
-109 -32 -34 0
110 32 0
110 35 0
-110 -32 -35 0
111 32 0
111 36 0
-111 -32 -36 0
112 32 0
112 37 0
-112 -32 -37 0
113 32 0
113 38 0
-113 -32 -38 0
114 33 0
114 34 0
-114 -33 -34 0
115 33 0
115 35 0
-115 -33 -35 0
116 33 0
116 36 0
-116 -33 -36 0
117 33 0
117 37 0
-117 -33 -37 0
118 33 0
118 38 0
-118 -33 -38 0
119 34 0
119 35 0
-119 -34 -35 0
120 34 0
120 36 0
-120 -34 -36 0
121 34 0
121 37 0
-121 -34 -37 0
122 34 0
122 38 0
-122 -34 -38 0
123 35 0
123 36 0
-123 -35 -36 0
124 35 0
124 37 0
-124 -35 -37 0
125 35 0
125 38 0
-125 -35 -38 0
126 36 0
126 37 0
-126 -36 -37 0
127 36 0
127 38 0
-127 -36 -38 0
128 37 0
128 38 0
-128 -37 -38 0
129 39 0
129 40 0
-129 -39 -40 0
130 39 0
130 41 0
-130 -39 -41 0
131 39 0
131 42 0
-131 -39 -42 0
132 39 0
132 43 0
-132 -39 -43 0
133 39 0
133 44 0
-133 -39 -44 0
134 39 0
134 45 0
-134 -39 -45 0
135 40 0
135 41 0
-135 -40 -41 0
136 40 0
136 42 0
-136 -40 -42 0
137 40 0
137 43 0
-137 -40 -43 0
138 40 0
138 44 0
-138 -40 -44 0
139 40 0
139 45 0
-139 -40 -45 0
140 41 0
140 42 0
-140 -41 -42 0
141 41 0
141 43 0
-141 -41 -43 0
142 41 0
142 44 0
-142 -41 -44 0
143 41 0
143 45 0
-143 -41 -45 0
144 42 0
144 43 0
-144 -42 -43 0
145 42 0
145 44 0
-145 -42 -44 0
146 42 0
146 45 0
-146 -42 -45 0
147 43 0
147 44 0
-147 -43 -44 0
148 43 0
148 45 0
-148 -43 -45 0
149 44 0
149 45 0
-149 -44 -45 0
150 46 0
150 47 0
-150 -46 -47 0
151 46 0
151 48 0
-151 -46 -48 0
152 46 0
152 49 0
-152 -46 -49 0
153 46 0
153 50 0
-153 -46 -50 0
154 46 0
154 51 0
-154 -46 -51 0
155 46 0
155 52 0
-155 -46 -52 0
156 47 0
156 48 0
-156 -47 -48 0
157 47 0
157 49 0
-157 -47 -49 0
158 47 0
158 50 0
-158 -47 -50 0
159 47 0
159 51 0
-159 -47 -51 0
160 47 0
160 52 0
-160 -47 -52 0
161 48 0
161 49 0
-161 -48 -49 0
162 48 0
162 50 0
-162 -48 -50 0
163 48 0
163 51 0
-163 -48 -51 0
164 48 0
164 52 0
-164 -48 -52 0
165 49 0
165 50 0
-165 -49 -50 0
166 49 0
166 51 0
-166 -49 -51 0
167 49 0
167 52 0
-167 -49 -52 0
168 50 0
168 51 0
-168 -50 -51 0
169 50 0
169 52 0
-169 -50 -52 0
170 51 0
170 52 0
-170 -51 -52 0
171 53 0
171 54 0
-171 -53 -54 0
172 53 0
172 55 0
-172 -53 -55 0
173 53 0
173 56 0
-173 -53 -56 0
174 53 0
174 57 0
-174 -53 -57 0
175 53 0
175 58 0
-175 -53 -58 0
176 53 0
176 59 0
-176 -53 -59 0
177 54 0
177 55 0
-177 -54 -55 0
178 54 0
178 56 0
-178 -54 -56 0
179 54 0
179 57 0
-179 -54 -57 0
180 54 0
180 58 0
-180 -54 -58 0
181 54 0
181 59 0
-181 -54 -59 0
182 55 0
182 56 0
-182 -55 -56 0
183 55 0
183 57 0
-183 -55 -57 0
184 55 0
184 58 0
-184 -55 -58 0
185 55 0
185 59 0
-185 -55 -59 0
186 56 0
186 57 0
-186 -56 -57 0
187 56 0
187 58 0
-187 -56 -58 0
188 56 0
188 59 0
-188 -56 -59 0
189 57 0
189 58 0
-189 -57 -58 0
190 57 0
190 59 0
-190 -57 -59 0
191 58 0
191 59 0
-191 -58 -59 0
192 60 0
192 61 0
-192 -60 -61 0
193 60 0
193 62 0
-193 -60 -62 0
194 60 0
194 63 0
-194 -60 -63 0
195 60 0
195 64 0
-195 -60 -64 0
196 60 0
196 65 0
-196 -60 -65 0
197 60 0
197 66 0
-197 -60 -66 0
198 61 0
198 62 0
-198 -61 -62 0
199 61 0
199 63 0
-199 -61 -63 0
200 61 0
200 64 0
-200 -61 -64 0
201 61 0
201 65 0
-201 -61 -65 0
202 61 0
202 66 0
-202 -61 -66 0
203 62 0
203 63 0
-203 -62 -63 0
204 62 0
204 64 0
-204 -62 -64 0
205 62 0
205 65 0
-205 -62 -65 0
206 62 0
206 66 0
-206 -62 -66 0
207 63 0
207 64 0
-207 -63 -64 0
208 63 0
208 65 0
-208 -63 -65 0
209 63 0
209 66 0
-209 -63 -66 0
210 64 0
210 65 0
-210 -64 -65 0
211 64 0
211 66 0
-211 -64 -66 0
212 65 0
212 66 0
-212 -65 -66 0
-213 80 0
-213 81 0
-213 82 0
-213 83 0
-213 84 0
-213 85 0
-213 86 0
-213 87 0
-213 88 0
-213 89 0
-213 90 0
-213 91 0
-213 92 0
-213 93 0
-213 94 0
-213 95 0
-213 96 0
-213 97 0
-213 98 0
-213 99 0
-213 100 0
-213 101 0
-213 102 0
-213 103 0
-213 104 0
-213 105 0
-213 106 0
-213 107 0
-213 108 0
-213 109 0
-213 110 0
-213 111 0
-213 112 0
-213 113 0
-213 114 0
-213 115 0
-213 116 0
-213 117 0
-213 118 0
-213 119 0
-213 120 0
-213 121 0
-213 122 0
-213 123 0
-213 124 0
-213 125 0
-213 126 0
-213 127 0
-213 128 0
-213 129 0
-213 130 0
-213 131 0
-213 132 0
-213 133 0
-213 134 0
-213 135 0
-213 136 0
-213 137 0
-213 138 0
-213 139 0
-213 140 0
-213 141 0
-213 142 0
-213 143 0
-213 144 0
-213 145 0
-213 146 0
-213 147 0
-213 148 0
-213 149 0
-213 150 0
-213 151 0
-213 152 0
-213 153 0
-213 154 0
-213 155 0
-213 156 0
-213 157 0
-213 158 0
-213 159 0
-213 160 0
-213 161 0
-213 162 0
-213 163 0
-213 164 0
-213 165 0
-213 166 0
-213 167 0
-213 168 0
-213 169 0
-213 170 0
-213 171 0
-213 172 0
-213 173 0
-213 174 0
-213 175 0
-213 176 0
-213 177 0
-213 178 0
-213 179 0
-213 180 0
-213 181 0
-213 182 0
-213 183 0
-213 184 0
-213 185 0
-213 186 0
-213 187 0
-213 188 0
-213 189 0
-213 190 0
-213 191 0
-213 192 0
-213 193 0
-213 194 0
-213 195 0
-213 196 0
-213 197 0
-213 198 0
-213 199 0
-213 200 0
-213 201 0
-213 202 0
-213 203 0
-213 204 0
-213 205 0
-213 206 0
-213 207 0
-213 208 0
-213 209 0
-213 210 0
-213 211 0
-213 212 0
213 -80 -81 -82 -83 -84 -85 -86 -87 -88 -89 -90 -91 -92 -93 -94 -95 -96 -97 -98 -99 -100 -101 -102 -103 -104 -105 -106 -107 -108 -109 -110 -111 -112 -113 -114 -115 -116 -117 -118 -119 -120 -121 -122 -123 -124 -125 -126 -127 -128 -129 -130 -131 -132 -133 -134 -135 -136 -137 -138 -139 -140 -141 -142 -143 -144 -145 -146 -147 -148 -149 -150 -151 -152 -153 -154 -155 -156 -157 -158 -159 -160 -161 -162 -163 -164 -165 -166 -167 -168 -169 -170 -171 -172 -173 -174 -175 -176 -177 -178 -179 -180 -181 -182 -183 -184 -185 -186 -187 -188 -189 -190 -191 -192 -193 -194 -195 -196 -197 -198 -199 -200 -201 -202 -203 -204 -205 -206 -207 -208 -209 -210 -211 -212 0
-213 0
